CSW05
Position Depot: Random
Horizon for Depot: Small
Position of customers: Cluster
Distribution of the demand: Small
Width of time windows: Wide
Distribution of the service: Small

VEHICLE 
NUMBER 	 CAPACITY 
 7 	 	 104 
 
CUSTOMER
CUST NO. 	 XCOORD.  	 YCOORD. 	 DEMAND 	 READY TIME 	 DUE DATE 	 SERVICE TIME 
 0 	 	 846 	 	 272 	 	 0 	 	 0 	 	 1893 	 	 0 
  1 	 	 55 	 	 947 	 	 10 	 	 724 	 	 1143 	 	 64 
  2 	 	 108 	 	 684 	 	 9 	 	 1642 	 	 1893 	 	 86 
  3 	 	 323 	 	 418 	 	 9 	 	 1021 	 	 1349 	 	 65 
  4 	 	 702 	 	 645 	 	 6 	 	 1483 	 	 1893 	 	 72 
  5 	 	 147 	 	 780 	 	 9 	 	 1258 	 	 1522 	 	 61 
  6 	 	 13 	 	 353 	 	 9 	 	 563 	 	 920 	 	 83 
  7 	 	 534 	 	 528 	 	 7 	 	 1030 	 	 1265 	 	 86 
  8 	 	 653 	 	 671 	 	 7 	 	 134 	 	 487 	 	 59 
  9 	 	 8 	 	 876 	 	 5 	 	 1432 	 	 1893 	 	 83 
  10 	 	 145 	 	 756 	 	 9 	 	 595 	 	 937 	 	 95 
  11 	 	 269 	 	 442 	 	 6 	 	 522 	 	 769 	 	 100 
  12 	 	 635 	 	 716 	 	 9 	 	 1299 	 	 1701 	 	 91 
  13 	 	 330 	 	 356 	 	 7 	 	 1309 	 	 1582 	 	 87 
  14 	 	 5 	 	 783 	 	 9 	 	 1229 	 	 1534 	 	 100 
  15 	 	 29 	 	 351 	 	 6 	 	 732 	 	 1052 	 	 69 
  16 	 	 348 	 	 454 	 	 5 	 	 1536 	 	 1736 	 	 92 
  17 	 	 175 	 	 629 	 	 10 	 	 628 	 	 836 	 	 81 
  18 	 	 385 	 	 313 	 	 7 	 	 746 	 	 954 	 	 54 
  19 	 	 510 	 	 607 	 	 10 	 	 1385 	 	 1661 	 	 92 
  20 	 	 562 	 	 510 	 	 5 	 	 223 	 	 555 	 	 58 
  21 	 	 169 	 	 817 	 	 10 	 	 697 	 	 956 	 	 56 
  22 	 	 661 	 	 623 	 	 7 	 	 1516 	 	 1752 	 	 96 
  23 	 	 30 	 	 783 	 	 6 	 	 612 	 	 1099 	 	 94 
  24 	 	 15 	 	 907 	 	 6 	 	 947 	 	 1150 	 	 57 
  25 	 	 285 	 	 382 	 	 5 	 	 171 	 	 628 	 	 54 
  26 	 	 57 	 	 764 	 	 5 	 	 1443 	 	 1740 	 	 83 
  27 	 	 2 	 	 389 	 	 8 	 	 659 	 	 937 	 	 93 
  28 	 	 615 	 	 686 	 	 9 	 	 907 	 	 1220 	 	 78 
  29 	 	 110 	 	 682 	 	 5 	 	 694 	 	 1143 	 	 80 
  30 	 	 466 	 	 623 	 	 5 	 	 1570 	 	 1893 	 	 72 
  31 	 	 718 	 	 626 	 	 6 	 	 1249 	 	 1707 	 	 96 
  32 	 	 110 	 	 704 	 	 9 	 	 1267 	 	 1750 	 	 57 
  33 	 	 568 	 	 480 	 	 10 	 	 1541 	 	 1893 	 	 85 
  34 	 	 44 	 	 359 	 	 6 	 	 673 	 	 887 	 	 87 
  35 	 	 652 	 	 715 	 	 6 	 	 47 	 	 531 	 	 58 
  36 	 	 738 	 	 713 	 	 8 	 	 479 	 	 809 	 	 98 
  37 	 	 773 	 	 642 	 	 8 	 	 352 	 	 779 	 	 83 
  38 	 	 628 	 	 480 	 	 7 	 	 1417 	 	 1670 	 	 51 
  39 	 	 28 	 	 796 	 	 8 	 	 629 	 	 1068 	 	 68 
  40 	 	 254 	 	 678 	 	 9 	 	 575 	 	 789 	 	 84 
  41 	 	 514 	 	 494 	 	 10 	 	 1396 	 	 1874 	 	 79 
  42 	 	 125 	 	 846 	 	 8 	 	 580 	 	 1013 	 	 100 
  43 	 	 289 	 	 232 	 	 7 	 	 121 	 	 614 	 	 53 
  44 	 	 26 	 	 960 	 	 6 	 	 961 	 	 1177 	 	 56 
  45 	 	 777 	 	 547 	 	 7 	 	 133 	 	 410 	 	 85 
  46 	 	 29 	 	 592 	 	 7 	 	 648 	 	 965 	 	 61 
  47 	 	 67 	 	 952 	 	 7 	 	 925 	 	 1137 	 	 56 
  48 	 	 768 	 	 712 	 	 7 	 	 1401 	 	 1712 	 	 61 
  49 	 	 134 	 	 680 	 	 9 	 	 618 	 	 902 	 	 90 
  50 	 	 233 	 	 782 	 	 7 	 	 464 	 	 877 	 	 85 
  51 	 	 161 	 	 853 	 	 8 	 	 1026 	 	 1346 	 	 63 
  52 	 	 409 	 	 450 	 	 8 	 	 1516 	 	 1893 	 	 89 
  53 	 	 82 	 	 617 	 	 8 	 	 1507 	 	 1778 	 	 62 
  54 	 	 308 	 	 402 	 	 6 	 	 859 	 	 1122 	 	 100 
  55 	 	 103 	 	 663 	 	 8 	 	 590 	 	 923 	 	 63 
  56 	 	 730 	 	 570 	 	 10 	 	 940 	 	 1328 	 	 77 
  57 	 	 114 	 	 660 	 	 8 	 	 1490 	 	 1893 	 	 91 
  58 	 	 677 	 	 648 	 	 8 	 	 1133 	 	 1487 	 	 67 
  59 	 	 532 	 	 466 	 	 9 	 	 400 	 	 768 	 	 64 
  60 	 	 60 	 	 863 	 	 10 	 	 925 	 	 1284 	 	 97 
  61 	 	 136 	 	 699 	 	 9 	 	 1073 	 	 1388 	 	 73 
  62 	 	 564 	 	 580 	 	 7 	 	 1039 	 	 1311 	 	 80 
  63 	 	 208 	 	 785 	 	 5 	 	 684 	 	 900 	 	 64 
  64 	 	 598 	 	 569 	 	 7 	 	 16 	 	 425 	 	 94 
  65 	 	 85 	 	 655 	 	 8 	 	 564 	 	 937 	 	 92 
  66 	 	 21 	 	 964 	 	 8 	 	 910 	 	 1184 	 	 85 
  67 	 	 186 	 	 855 	 	 5 	 	 570 	 	 968 	 	 77 
  68 	 	 510 	 	 605 	 	 5 	 	 108 	 	 520 	 	 66 
  69 	 	 746 	 	 918 	 	 5 	 	 1078 	 	 1306 	 	 93 
  70 	 	 146 	 	 962 	 	 8 	 	 663 	 	 1081 	 	 76 
  71 	 	 73 	 	 351 	 	 7 	 	 1377 	 	 1643 	 	 95 
  72 	 	 41 	 	 571 	 	 6 	 	 687 	 	 944 	 	 51 
  73 	 	 260 	 	 618 	 	 7 	 	 1481 	 	 1715 	 	 63 
  74 	 	 711 	 	 689 	 	 6 	 	 786 	 	 1167 	 	 61 
  75 	 	 25 	 	 924 	 	 10 	 	 1426 	 	 1702 	 	 99 
  76 	 	 688 	 	 599 	 	 10 	 	 1601 	 	 1837 	 	 62 
  77 	 	 42 	 	 312 	 	 8 	 	 1338 	 	 1747 	 	 89 
  78 	 	 546 	 	 548 	 	 5 	 	 757 	 	 1173 	 	 98 
  79 	 	 39 	 	 384 	 	 10 	 	 519 	 	 896 	 	 70 
  80 	 	 670 	 	 660 	 	 8 	 	 1434 	 	 1647 	 	 92 
  81 	 	 126 	 	 357 	 	 8 	 	 428 	 	 797 	 	 86 
  82 	 	 695 	 	 529 	 	 5 	 	 1531 	 	 1880 	 	 74 
  83 	 	 146 	 	 912 	 	 9 	 	 639 	 	 1043 	 	 59 
  84 	 	 149 	 	 700 	 	 5 	 	 790 	 	 1236 	 	 52 
  85 	 	 491 	 	 496 	 	 9 	 	 1310 	 	 1792 	 	 87 
  86 	 	 150 	 	 917 	 	 8 	 	 1451 	 	 1748 	 	 99 
  87 	 	 540 	 	 582 	 	 10 	 	 603 	 	 1085 	 	 55 
  88 	 	 28 	 	 886 	 	 7 	 	 794 	 	 1125 	 	 69 
  89 	 	 225 	 	 844 	 	 9 	 	 435 	 	 928 	 	 95 
  90 	 	 84 	 	 351 	 	 5 	 	 1493 	 	 1826 	 	 64 
  91 	 	 210 	 	 748 	 	 5 	 	 396 	 	 873 	 	 89 
  92 	 	 667 	 	 736 	 	 5 	 	 382 	 	 840 	 	 80 
  93 	 	 147 	 	 507 	 	 8 	 	 333 	 	 811 	 	 69 
  94 	 	 446 	 	 499 	 	 5 	 	 1409 	 	 1893 	 	 84 
  95 	 	 522 	 	 517 	 	 8 	 	 884 	 	 1114 	 	 69 
  96 	 	 683 	 	 666 	 	 9 	 	 582 	 	 842 	 	 74 
  97 	 	 529 	 	 559 	 	 5 	 	 669 	 	 933 	 	 53 
  98 	 	 549 	 	 547 	 	 7 	 	 372 	 	 763 	 	 83 
  99 	 	 106 	 	 687 	 	 9 	 	 473 	 	 933 	 	 93 
  100 	 	 57 	 	 937 	 	 6 	 	 1261 	 	 1552 	 	 60 
 